NAME : A-n44-k6.617386.tour
COMMENT : Length = 617386
COMMENT : Found by LKH [Keld Helsgaun] Sun Dec 17 18:37:42 2017
TYPE : TOUR
DIMENSION : 49
TOUR_SECTION
1
27
11
12
17
21
19
36
2
46
18
31
24
41
30
44
48
5
35
40
13
4
7
26
45
32
9
16
28
29
8
49
20
34
25
6
22
33
38
43
47
3
23
37
10
39
42
15
14
-1
EOF
